p cnf 15 20
15 14 -13 0
15 -14 -9 0
15 13 5 0
-15 11 9 0
-14 -13 10 0
13 12 1 0
-13 -11 -1 0
13 10 5 0
13 -7 4 0
-12 -11 -2 0
12 7 -2 0
12 5 3 0
-11 7 -6 0
11 7 1 0
11 5 1 0
10 9 -1 0
10 3 1 0
-9 7 6 0
-9 -7 -2 0
-4 3 1 0
